p cnf 32 89
a 10 4 0
e 1 2 3 5 6 7 8 9 11 12 13 14 15 16 17 18 19 20 21 22 23 24 25 26 27 28 29 30 31 32 0
-4 -2 0
-4 -3 0
2 3 4 0
1 -4 -5 0
-1 4 -5 0
1 4 5 0
-1 -4 5 0
7 5 0
7 6 0
-5 -6 -7 0
-10 9 0
-10 3 0
-9 -3 10 0
-11 8 0
-11 -10 0
-8 10 11 0
12 -2 0
12 -11 0
2 11 -12 0
3 4 -13 0
-3 -4 -13 0
3 -4 13 0
-3 4 13 0
14 -12 0
14 -13 0
12 13 -14 0
-15 7 0
-15 -14 0
-7 14 15 0
16 -13 0
16 10 0
13 -10 -16 0
18 -8 0
18 3 0
8 -3 -18 0
17 18 -19 0
-17 -18 -19 0
17 -18 19 0
-17 18 19 0
-20 -9 0
-20 6 0
9 -6 20 0
21 19 0
21 -20 0
-19 20 -21 0
22 16 0
22 -21 0
-16 21 -22 0
23 15 0
23 -22 0
-15 22 -23 0
-24 -10 0
-24 -6 0
10 6 24 0
-18 -24 -25 0
18 24 -25 0
-18 24 25 0
18 -24 25 0
-9 6 -26 0
9 -6 -26 0
-9 -6 26 0
9 6 26 0
27 26 0
27 8 0
-26 -8 -27 0
17 28 -29 0
-17 -28 -29 0
17 -28 29 0
-17 28 29 0
-30 -27 0
-30 29 0
27 -29 30 0
25 -30 -31 0
-25 30 -31 0
25 30 31 0
-25 -30 31 0
23 31 -32 0
-23 -31 -32 0
23 -31 32 0
-23 31 32 0
-16 1 14 21 -17 11 0
-1 8 14 6 18 -2 -31 0
21 20 -25 0
13 -32 -24 -3 -8 0
21 -20 23 15 1 -2 9 29 0
-4 5 -18 26 6 19 0
26 8 32 -15 31 -11 14 0
7 -32 14 0
32 0
